language Essence 1.3

letting blksize_delta be
        function(1 --> 10, 2 --> 10, 3 --> 10, 4 --> 10, 5 --> 10, 6 --> 10, 7 --> 10, 8 --> 10, 9 --> 10, 10 --> 10,
                 11 --> 10, 12 --> 10, 13 --> 10, 14 --> 10, 15 --> 10, 16 --> 10, 17 --> 10, 18 --> 10, 19 --> 10,
                 20 --> 10, 21 --> 10, 22 --> 10, 23 --> 10, 24 --> 10, 25 --> 10, 26 --> 10, 27 --> 10, 28 --> 10,
                 29 --> 10, 30 --> 10, 31 --> 10, 32 --> 10, 33 --> 10, 34 --> 10, 35 --> 10, 36 --> 10, 37 --> 10,
                 38 --> 10, 39 --> 10, 40 --> 10, 41 --> 10, 42 --> 10, 43 --> 10)
letting maxcars be
        function(1 --> 9, 2 --> 9, 3 --> 10, 4 --> 10, 5 --> 9, 6 --> 9, 7 --> 9, 8 --> 10, 9 --> 9, 10 --> 9, 11 --> 9,
                 12 --> 9, 13 --> 9, 14 --> 9, 15 --> 9, 16 --> 9, 17 --> 9, 18 --> 9, 19 --> 9, 20 --> 9, 21 --> 9,
                 22 --> 9, 23 --> 9, 24 --> 9, 25 --> 9, 26 --> 9, 27 --> 9, 28 --> 9, 29 --> 9, 30 --> 9, 31 --> 10,
                 32 --> 9, 33 --> 10, 34 --> 9, 35 --> 9, 36 --> 9, 37 --> 9, 38 --> 9, 39 --> 9, 40 --> 9, 41 --> 9,
                 42 --> 10, 43 --> 9)
letting n_cars be 156
letting n_classes be 23
letting n_options be 43
letting quantity be
        function(1 --> 5, 2 --> 5, 3 --> 6, 4 --> 7, 5 --> 7, 6 --> 7, 7 --> 7, 8 --> 7, 9 --> 7, 10 --> 7, 11 --> 7,
                 12 --> 7, 13 --> 7, 14 --> 7, 15 --> 7, 16 --> 7, 17 --> 7, 18 --> 7, 19 --> 7, 20 --> 7, 21 --> 7,
                 22 --> 7, 23 --> 7)
letting usage be
        relation((1, 13), (1, 18), (1, 20), (1, 23), (1, 41), (2, 1), (2, 12), (2, 31), (3, 3), (3, 15), (3, 25),
                 (3, 35), (3, 39), (3, 40), (4, 12), (4, 14), (4, 20), (5, 2), (5, 14), (5, 19), (5, 29), (5, 33),
                 (6, 4), (7, 15), (7, 20), (7, 35), (8, 1), (8, 4), (8, 43), (9, 10), (9, 12), (9, 15), (10, 11),
                 (10, 19), (10, 27), (10, 36), (11, 10), (11, 18), (11, 29), (11, 41), (12, 7), (12, 10), (12, 26),
                 (12, 36), (12, 37), (12, 38), (13, 7), (13, 16), (13, 26), (13, 31), (13, 40), (13, 41), (14, 10),
                 (14, 18), (14, 37), (14, 39), (14, 43), (15, 21), (15, 24), (15, 29), (15, 34), (15, 37), (16, 43),
                 (17, 16), (17, 21), (17, 22), (17, 32), (17, 33), (17, 37), (18, 3), (18, 4), (18, 8), (18, 11),
                 (18, 12), (18, 29), (18, 30), (18, 34), (18, 37), (18, 42), (19, 13), (19, 43), (20, 9), (20, 12),
                 (20, 14), (20, 17), (20, 23), (20, 25), (20, 38), (21, 4), (21, 12), (21, 19), (21, 29), (21, 31),
                 (21, 38), (22, 9), (22, 12), (22, 38), (23, 5), (23, 6), (23, 17), (23, 28))
$ Visualisation for usage
$  1 13
$  1 18
$  1 20
$  1 23
$  1 41
$  2  1
$  2 12
$  2 31
$  3  3
$  3 15
$  3 25
$  3 35
$  3 39
$  3 40
$  4 12
$  4 14
$  4 20
$  5  2
$  5 14
$  5 19
$  5 29
$  5 33
$  6  4
$  7 15
$  7 20
$  7 35
$  8  1
$  8  4
$  8 43
$  9 10
$  9 12
$  9 15
$ 10 11
$ 10 19
$ 10 27
$ 10 36
$ 11 10
$ 11 18
$ 11 29
$ 11 41
$ 12  7
$ 12 10
$ 12 26
$ 12 36
$ 12 37
$ 12 38
$ 13  7
$ 13 16
$ 13 26
$ 13 31
$ 13 40
$ 13 41
$ 14 10
$ 14 18
$ 14 37
$ 14 39
$ 14 43
$ 15 21
$ 15 24
$ 15 29
$ 15 34
$ 15 37
$ 16 43
$ 17 16
$ 17 21
$ 17 22
$ 17 32
$ 17 33
$ 17 37
$ 18  3
$ 18  4
$ 18  8
$ 18 11
$ 18 12
$ 18 29
$ 18 30
$ 18 34
$ 18 37
$ 18 42
$ 19 13
$ 19 43
$ 20  9
$ 20 12
$ 20 14
$ 20 17
$ 20 23
$ 20 25
$ 20 38
$ 21  4
$ 21 12
$ 21 19
$ 21 29
$ 21 31
$ 21 38
$ 22  9
$ 22 12
$ 22 38
$ 23  5
$ 23  6
$ 23 17
$ 23 28

